p cnf 114 116
c ind 1 2 3 4 5 6 7 8 0
-1 1 9 0
-1 3 10 0
-3 1 11 0
-3 3 12 0
-1 5 13 0
-1 7 14 0
-3 5 15 0
-3 7 16 0
-5 1 17 0
-5 3 18 0
-7 1 19 0
-7 3 20 0
-5 5 21 0
-5 7 22 0
-7 5 23 0
-7 7 24 0
-2 2 9 0
-2 4 10 0
-4 2 11 0
-4 4 12 0
-2 6 13 0
-2 8 14 0
-4 6 15 0
-4 8 16 0
-6 2 17 0
-6 4 18 0
-8 2 19 0
-8 4 20 0
-6 6 21 0
-6 8 22 0
-8 6 23 0
-8 8 24 0
-1 -1 -9 0
-5 -1 -10 0
-3 -3 -9 0
-7 -3 -10 0
-1 -5 -11 0
-5 -5 -12 0
-3 -7 -11 0
-7 -7 -12 0
-1 -2 -13 0
-5 -2 -14 0
-3 -4 -13 0
-7 -4 -14 0
-1 -6 -15 0
-5 -6 -16 0
-3 -8 -15 0
-7 -8 -16 0
-2 -1 -17 0
-6 -1 -18 0
-4 -3 -17 0
-8 -3 -18 0
-2 -5 -19 0
-6 -5 -20 0
-4 -7 -19 0
-8 -7 -20 0
-2 -2 -21 0
-6 -2 -22 0
-4 -4 -21 0
-8 -4 -22 0
-2 -6 -23 0
-6 -6 -24 0
-4 -8 -23 0
-8 -8 -24 0
1 2 0
-1 -2 0
3 4 0
-3 -4 0
5 6 0
-5 -6 0
7 8 0
-7 -8 0
-104 -1 7 0
-104 -2 0
-105 -1 8 0
-105 -2 7 0
104 105 0
104 106 0
-106 107 108 0
-106 107 109 0
-109 110 111 0
-109 110 112 0
-112 113 114 0
-107 -3 5 0
-107 -4 0
-108 -3 6 0
-108 -4 5 0
104 105 0
104 106 0
-106 107 108 0
-106 107 109 0
-109 110 111 0
-109 110 112 0
-112 113 114 0
-110 -5 3 0
-110 -6 0
-111 -5 4 0
-111 -6 3 0
104 105 0
104 106 0
-106 107 108 0
-106 107 109 0
-109 110 111 0
-109 110 112 0
-112 113 114 0
-113 -7 1 0
-113 -8 0
-114 -7 2 0
-114 -8 1 0
104 105 0
104 106 0
-106 107 108 0
-106 107 109 0
-109 110 111 0
-109 110 112 0
-112 113 114 0
